************************************************************************
file with basedata            : mm54_.bas
initial value random generator: 360407948
************************************************************************
projects                      :  1
jobs (incl. supersource/sink ):  12
horizon                       :  86
RESOURCES
  - renewable                 :  2   R
  - nonrenewable              :  2   N
  - doubly constrained        :  0   D
************************************************************************
PROJECT INFORMATION:
pronr.  #jobs rel.date duedate tardcost  MPM-Time
    1     10      0       18        6       18
************************************************************************
PRECEDENCE RELATIONS:
jobnr.    #modes  #successors   successors
   1        1          3           2   3   4
   2        3          3           6   7   8
   3        3          3           5   6  10
   4        3          1          10
   5        3          1           8
   6        3          2           9  11
   7        3          1           9
   8        3          1          11
   9        3          1          12
  10        3          1          12
  11        3          1          12
  12        1          0        
************************************************************************
REQUESTS/DURATIONS:
jobnr. mode duration  R 1  R 2  N 1  N 2
------------------------------------------------------------------------
  1      1     0       0    0    0    0
  2      1     6       7   10    7    9
         2     7       7    8    7    7
         3     8       3    4    7    7
  3      1     3      10    7    5    8
         2     5       5    7    4    6
         3     9       1    7    4    6
  4      1     4       9    5    8    7
         2     5       6    5    8    7
         3     8       5    2    7    6
  5      1     1       7    4    8    3
         2     4       5    4    8    2
         3     7       3    2    7    2
  6      1     5       7    7    7    5
         2     7       6    6    6    4
         3     9       5    3    6    4
  7      1     4       8    8    3    9
         2     4       9    7    3    9
         3     6       7    4    3    7
  8      1     5       7    7    5    8
         2     9       7    5    4    7
         3    10       6    4    4    6
  9      1     1       6    6    3    9
         2     1       5    6    4   10
         3    10       2    4    1    5
 10      1     5       7    2    8    2
         2     7       6    2    8    2
         3     9       6    1    7    2
 11      1     7      10    9    5    6
         2     7       8    9    6    6
         3    10       8    8    4    5
 12      1     0       0    0    0    0
************************************************************************
RESOURCEAVAILABILITIES:
  R 1  R 2  N 1  N 2
   23   19   56   59
************************************************************************
MAXIMAL LAGS:
from  to  type  delay
    1   12   ES      0
    1    2   ES      0
    2   12   ES      0
    1    3   ES      0
    3   12   ES      0
    1    4   ES      0
    4   12   ES      0
    1    5   ES      0
    5   12   ES      0
    1    6   ES      0
    6   12   ES      0
    1    7   ES      0
    7   12   ES      0
    1    8   ES      0
    8   12   ES      0
    1    9   ES      0
    9   12   ES      0
    1   10   ES      0
   10   12   ES      0
    1   11   ES      0
   11   12   ES      0
    1   12   ES      0
    2    6   SS      0
    2    6   SE      6
    2    6   ES     -6
    2    6   EE     -8
    2    7   SS      1
    2    7   SE     -2
    2    7   ES      2
    2    7   EE     -5
    2    8   SS     11
    2    8   SE     -8
    2    8   ES     12
    2    8   EE      3
    3    5   SS     -2
    3    5   SE      7
    3    5   ES     12
    3    5   EE      7
    3    6   SS      4
    3    6   SE     11
    3    6   ES      8
    3    6   EE    -11
    3   10   SS      9
    3   10   SE     -9
    3   10   ES    -10
    3   10   EE    -10
    4   10   SS    -12
    4   10   SE    -12
    4   10   ES    -11
    4   10   EE     -2
    5    8   SS    -10
    5    8   SE     -2
    5    8   ES     -1
    5    8   EE     -6
    6    9   SS     11
    6    9   SE     -8
    6    9   ES     -6
    6    9   EE     -3
    6   11   SS    -10
    6   11   SE     -1
    6   11   ES      7
    6   11   EE     -2
    7    9   SS      6
    7    9   SE      2
    7    9   ES      3
    7    9   EE     -2
    8   11   SS     10
    8   11   SE     -7
    8   11   ES     -3
    8   11   EE     -3
************************************************************************
